numDays = 370;

dates = [2021-10-06,2021-10-07,2021-10-08,2021-10-09,2021-10-10,2021-10-11,2021-10-12,2021-10-13,2021-10-14,2021-10-15,2021-10-16,2021-10-17,2021-10-18,2021-10-19,2021-10-20,2021-10-21,2021-10-22,2021-10-23,2021-10-24,2021-10-25,2021-10-26,2021-10-27,2021-10-28,2021-10-29,2021-10-30,2021-10-31,2021-11-01,2021-11-02,2021-11-03,2021-11-04,2021-11-05,2021-11-06,2021-11-07,2021-11-08,2021-11-09,2021-11-10,2021-11-11,2021-11-12,2021-11-13,2021-11-14,2021-11-15,2021-11-16,2021-11-17,2021-11-18,2021-11-19,2021-11-20,2021-11-21,2021-11-22,2021-11-23,2021-11-24,2021-11-25,2021-11-26,2021-11-27,2021-11-28,2021-11-29,2021-11-30,2021-12-01,2021-12-02,2021-12-03,2021-12-04,2021-12-05,2021-12-06,2021-12-07,2021-12-08,2021-12-09,2021-12-10,2021-12-11,2021-12-12,2021-12-13,2021-12-14,2021-12-15,2021-12-16,2021-12-17,2021-12-18,2021-12-19,2021-12-20,2021-12-21,2021-12-22,2021-12-23,2021-12-24,2021-12-25,2021-12-26,2021-12-27,2021-12-28,2021-12-29,2021-12-30,2021-12-31,2022-01-01,2022-01-02,2022-01-03,2022-01-04,2022-01-05,2022-01-06,2022-01-07,2022-01-08,2022-01-09,2022-01-10,2022-01-11,2022-01-12,2022-01-13,2022-01-14,2022-01-15,2022-01-16,2022-01-17,2022-01-18,2022-01-19,2022-01-20,2022-01-21,2022-01-22,2022-01-23,2022-01-24,2022-01-25,2022-01-26,2022-01-27,2022-01-28,2022-01-29,2022-01-30,2022-01-31,2022-02-01,2022-02-02,2022-02-03,2022-02-04,2022-02-05,2022-02-06,2022-02-07,2022-02-08,2022-02-09,2022-02-10,2022-02-11,2022-02-12,2022-02-13,2022-02-14,2022-02-15,2022-02-16,2022-02-17,2022-02-18,2022-02-19,2022-02-20,2022-02-21,2022-02-22,2022-02-23,2022-02-24,2022-02-25,2022-02-26,2022-02-27,2022-02-28,2022-03-01,2022-03-02,2022-03-03,2022-03-04,2022-03-05,2022-03-06,2022-03-07,2022-03-08,2022-03-09,2022-03-10,2022-03-11,2022-03-12,2022-03-13,2022-03-14,2022-03-15,2022-03-16,2022-03-17,2022-03-18,2022-03-19,2022-03-20,2022-03-21,2022-03-22,2022-03-23,2022-03-24,2022-03-25,2022-03-26,2022-03-27,2022-03-28,2022-03-29,2022-03-30,2022-03-31,2022-04-01,2022-04-02,2022-04-03,2022-04-04,2022-04-05,2022-04-06,2022-04-07,2022-04-08,2022-04-09,2022-04-10,2022-04-11,2022-04-12,2022-04-13,2022-04-14,2022-04-15,2022-04-16,2022-04-17,2022-04-18,2022-04-19,2022-04-20,2022-04-21,2022-04-22,2022-04-23,2022-04-24,2022-04-25,2022-04-26,2022-04-27,2022-04-28,2022-04-29,2022-04-30,2022-05-01,2022-05-02,2022-05-03,2022-05-04,2022-05-05,2022-05-06,2022-05-07,2022-05-08,2022-05-09,2022-05-10,2022-05-11,2022-05-12,2022-05-13,2022-05-14,2022-05-15,2022-05-16,2022-05-17,2022-05-18,2022-05-19,2022-05-20,2022-05-21,2022-05-22,2022-05-23,2022-05-24,2022-05-25,2022-05-26,2022-05-27,2022-05-28,2022-05-29,2022-05-30,2022-05-31,2022-06-01,2022-06-02,2022-06-03,2022-06-04,2022-06-05,2022-06-06,2022-06-07,2022-06-08,2022-06-09,2022-06-10,2022-06-11,2022-06-12,2022-06-13,2022-06-14,2022-06-15,2022-06-16,2022-06-17,2022-06-18,2022-06-19,2022-06-20,2022-06-21,2022-06-22,2022-06-23,2022-06-24,2022-06-25,2022-06-26,2022-06-27,2022-06-28,2022-06-29,2022-06-30,2022-07-01,2022-07-02,2022-07-03,2022-07-04,2022-07-05,2022-07-06,2022-07-07,2022-07-08,2022-07-09,2022-07-10,2022-07-11,2022-07-12,2022-07-13,2022-07-14,2022-07-15,2022-07-16,2022-07-17,2022-07-18,2022-07-19,2022-07-20,2022-07-21,2022-07-22,2022-07-23,2022-07-24,2022-07-25,2022-07-26,2022-07-27,2022-07-28,2022-07-29,2022-07-30,2022-07-31,2022-08-01,2022-08-02,2022-08-03,2022-08-04,2022-08-05,2022-08-06,2022-08-07,2022-08-08,2022-08-09,2022-08-10,2022-08-11,2022-08-12,2022-08-13,2022-08-14,2022-08-15,2022-08-16,2022-08-17,2022-08-18,2022-08-19,2022-08-20,2022-08-21,2022-08-22,2022-08-23,2022-08-24,2022-08-25,2022-08-26,2022-08-27,2022-08-28,2022-08-29,2022-08-30,2022-08-31,2022-09-01,2022-09-02,2022-09-03,2022-09-04,2022-09-05,2022-09-06,2022-09-07,2022-09-08,2022-09-09,2022-09-10,2022-09-11,2022-09-12,2022-09-13,2022-09-14,2022-09-15,2022-09-16,2022-09-17,2022-09-18,2022-09-19,2022-09-20,2022-09-21,2022-09-22,2022-09-23,2022-09-24,2022-09-25,2022-09-26,2022-09-27,2022-09-28,2022-09-29,2022-09-30,2022-10-01,2022-10-02,2022-10-03,2022-10-04,2022-10-05,2022-10-06,2022-10-07,2022-10-08,2022-10-09,2022-10-10];

daysOfWeek = [Wednesday,Thursday,Friday,Saturday,Sunday,Monday,Tuesday,Wednesday,Thursday,Friday,Saturday,Sunday,Monday,Tuesday,Wednesday,Thursday,Friday,Saturday,Sunday,Monday,Tuesday,Wednesday,Thursday,Friday,Saturday,Sunday,Monday,Tuesday,Wednesday,Thursday,Friday,Saturday,Sunday,Monday,Tuesday,Wednesday,Thursday,Friday,Saturday,Sunday,Monday,Tuesday,Wednesday,Thursday,Friday,Saturday,Sunday,Monday,Tuesday,Wednesday,Thursday,Friday,Saturday,Sunday,Monday,Tuesday,Wednesday,Thursday,Friday,Saturday,Sunday,Monday,Tuesday,Wednesday,Thursday,Friday,Saturday,Sunday,Monday,Tuesday,Wednesday,Thursday,Friday,Saturday,Sunday,Monday,Tuesday,Wednesday,Thursday,Friday,Saturday,Sunday,Monday,Tuesday,Wednesday,Thursday,Friday,Saturday,Sunday,Monday,Tuesday,Wednesday,Thursday,Friday,Saturday,Sunday,Monday,Tuesday,Wednesday,Thursday,Friday,Saturday,Sunday,Monday,Tuesday,Wednesday,Thursday,Friday,Saturday,Sunday,Monday,Tuesday,Wednesday,Thursday,Friday,Saturday,Sunday,Monday,Tuesday,Wednesday,Thursday,Friday,Saturday,Sunday,Monday,Tuesday,Wednesday,Thursday,Friday,Saturday,Sunday,Monday,Tuesday,Wednesday,Thursday,Friday,Saturday,Sunday,Monday,Tuesday,Wednesday,Thursday,Friday,Saturday,Sunday,Monday,Tuesday,Wednesday,Thursday,Friday,Saturday,Sunday,Monday,Tuesday,Wednesday,Thursday,Friday,Saturday,Sunday,Monday,Tuesday,Wednesday,Thursday,Friday,Saturday,Sunday,Monday,Tuesday,Wednesday,Thursday,Friday,Saturday,Sunday,Monday,Tuesday,Wednesday,Thursday,Friday,Saturday,Sunday,Monday,Tuesday,Wednesday,Thursday,Friday,Saturday,Sunday,Monday,Tuesday,Wednesday,Thursday,Friday,Saturday,Sunday,Monday,Tuesday,Wednesday,Thursday,Friday,Saturday,Sunday,Monday,Tuesday,Wednesday,Thursday,Friday,Saturday,Sunday,Monday,Tuesday,Wednesday,Thursday,Friday,Saturday,Sunday,Monday,Tuesday,Wednesday,Thursday,Friday,Saturday,Sunday,Monday,Tuesday,Wednesday,Thursday,Friday,Saturday,Sunday,Monday,Tuesday,Wednesday,Thursday,Friday,Saturday,Sunday,Monday,Tuesday,Wednesday,Thursday,Friday,Saturday,Sunday,Monday,Tuesday,Wednesday,Thursday,Friday,Saturday,Sunday,Monday,Tuesday,Wednesday,Thursday,Friday,Saturday,Sunday,Monday,Tuesday,Wednesday,Thursday,Friday,Saturday,Sunday,Monday,Tuesday,Wednesday,Thursday,Friday,Saturday,Sunday,Monday,Tuesday,Wednesday,Thursday,Friday,Saturday,Sunday,Monday,Tuesday,Wednesday,Thursday,Friday,Saturday,Sunday,Monday,Tuesday,Wednesday,Thursday,Friday,Saturday,Sunday,Monday,Tuesday,Wednesday,Thursday,Friday,Saturday,Sunday,Monday,Tuesday,Wednesday,Thursday,Friday,Saturday,Sunday,Monday,Tuesday,Wednesday,Thursday,Friday,Saturday,Sunday,Monday,Tuesday,Wednesday,Thursday,Friday,Saturday,Sunday,Monday,Tuesday,Wednesday,Thursday,Friday,Saturday,Sunday,Monday,Tuesday,Wednesday,Thursday,Friday,Saturday,Sunday,Monday,Tuesday,Wednesday,Thursday,Friday,Saturday,Sunday,Monday,Tuesday,Wednesday,Thursday,Friday,Saturday,Sunday,Monday,Tuesday,Wednesday,Thursday,Friday,Saturday,Sunday,Monday,Tuesday,Wednesday,Thursday,Friday,Saturday,Sunday,Monday,Tuesday,Wednesday,Thursday,Friday,Saturday,Sunday,Monday];

% For this week, how many people will be here.
numPeople = [26,26,26,26,26,30,30,30,30,26,29,29,29,29,32,32,46,35
,35,41,42,42,44,35,35,35,35,41,38,52,52,59,44,44,54,51
,51,51,51,51,54,65,62,74,83,93,84,88,85,95,95,105,105,108
,108,108,105,105,105,115,125,125,125,125,125,124,124,124,124,119,119,127
,135,154,154,154,146,146,144,153,152,152,152,152,161,161,164,164,164,164
,164,164,164,164,164,165,165,154,154,162,162,162,162,162,162,162,162,162
,163,162,162,162,167,164,167,164,164,164,158,160,160,155,158,158,158,154
,156,156,156,156,156,156,156,163,163,163,162,147,161,157,157,157,148,162
,148,148,135,139,136,125,125,125,125,117,122,121,109,109,109,109,98,98
,98,89,89,89,89,89,89,89,89,89,89,89,89,89,89,89,89,89
,89,89,89,89,89,89,89,89,89,89,89,89,89,89,89,89,89,89
,89,89,91,91,91,91,91,40,40,40,40,40,40,40,40,40,40,40
,25,25,25,25,25,25,25,25,25,25,25,25,25,25,25,25,25,25
,25,25,25,25,25,25,25,25,25,25,25,25,25,25,25,25,25,25
,25,25,25,25,25,25,25,25,25,25,25,25,25,25,25,25,25,25
,25,25,25,25,25,25,25,25,25,25,25,25,25,25,25,25,25,25
,25,25,25,25,25,25,25,25,25,25,25,25,25,25,25,25,25,25
,25,25,25,25,25,25,25,25,25,25,25,25,25,25,25,25,25,25
,25,25,25,25,25,25,25,25,25,25,25,25,25,25,25,25,25,25
,25,25,25,25,25,25,25,25,25,25,25,25,25,25,25,25,25,25
,25,25,25,25,25,25,25,25,25,25];

% Physical workers need 50 to 100 % more nutrients per day.
numPhysicalWorkers = [14.5,14.5,14.5,14.5,14.5,14.5,14.5,14.5,14.5,14.5,16.5,16.5,16.5,16.5
,18.5,18.5,20.5,20.5,20.5,20.5,20.5,20.5,20.5,20.5,20.5,20.5,20.5,20.5
,20.5,20.5,20.5,23.5,23.5,22.5,29.0,28.0,28.0,28.0,28.0,28.0,28.0,33.0
,33.0,37.5,37.5,38.0,37.0,37.0,37.0,40.0,40.0,41.0,41.0,41.0,41.0,41.0
,41.0,41.0,41.0,45.0,46.5,46.5,46.5,46.5,46.5,46.5,45.5,45.5,45.5,45.5
,43.5,44.0,44.0,53.5,53.5,53.5,53.5,53.5,53.5,56.0,56.0,55.0,55.0,55.0
,58.5,58.5,58.5,58.5,58.5,58.5,58.5,58.5,58.5,58.5,58.5,58.5,58.5,58.5
,54.0,56.5,56.5,56.5,56.5,56.5,56.5,56.5,56.5,56.5,56.5,56.5,56.5,56.5
,57.5,57.5,57.5,57.5,57.5,57.5,57.5,54.0,54.0,54.0,53.0,53.0,53.0,53.0
,51.5,51.5,51.5,51.5,51.5,51.5,55.0,50.5,50.5,50.5,50.5,50.5,47.0,47.0
,47.0,47.0,47.0,46.0,46.0,46.0,46.0,42.0,42.0,39.0,33.5,33.5,33.5,33.5
,32.0,32.0,31.0,28.0,28.0,28.0,28.0,28.0,28.0,28.0,21.0,21.0,21.0,21.0
,21.0,21.0,21.0,21.0,21.0,21.0,21.0,21.0,21.0,21.0,21.0,21.0,21.0,21.0
,21.0,21.0,21.0,21.0,21.0,21.0,21.0,21.0,21.0,21.0,21.0,21.0,21.0,21.0
,21.0,21.0,21.0,21.0,21.5,21.5,21.5,21.5,21.5,21.5,14.5,14.5,14.5,14.5
,14.5,14.5,14.5,14.5,14.5,14.5,14.5,13.0,13.0,13.0,13.0,13.0,13.0,13.0
,13.0,13.0,13.0,13.0,13.0,13.0,13.0,13.0,13.0,13.0,13.0,13.0,13.0,13.0
,13.0,13.0,13.0,13.0,13.0,13.0,13.0,13.0,13.0,13.0,13.0,13.0,13.0,13.0
,13.0,13.0,13.0,13.0,13.0,13.0,13.0,13.0,13.0,13.0,13.0,13.0,13.0,13.0
,13.0,13.0,13.0,13.0,13.0,13.0,13.0,13.0,13.0,13.0,13.0,13.0,13.0,13.0
,13.0,13.0,13.0,13.0,13.0,13.0,13.0,13.0,13.0,13.0,13.0,13.0,13.0,13.0
,13.0,13.0,13.0,13.0,13.0,13.0,13.0,13.0,13.0,13.0,13.0,13.0,13.0,13.0
,13.0,13.0,13.0,13.0,13.0,13.0,13.0,13.0,13.0,13.0,13.0,13.0,13.0,13.0
,13.0,13.0,13.0,13.0,13.0,13.0,13.0,13.0,13.0,13.0,13.0,13.0,13.0,13.0
,13.0,13.0,13.0,13.0,13.0,13.0,13.0,13.0,13.0,13.0,13.0,13.0,13.0,13.0
,13.0,13.0,13.0,13.0,13.0,13.0,13.0,13.0,13.0,13.0,13.0,13.0,13.0,13.0
,13.0,13.0,13.0,13.0,13.0,13.0];

% Males need +25% more nutrients per day.
numMen = [23,23,23,23,23,27,27,27,27,27,25,25,25,25,27,27,41,41
,30,36,42,36,43,37,30,30,30,36,36,46,46,50,50,36,42,41
,38,38,38,38,40,47,47,52,60,71,71,65,65,72,72,81,81,84
,84,84,84,81,81,86,96,96,96,96,96,96,95,95,95,100,94,101
,108,126,126,126,126,119,119,128,128,127,127,127,136,135,137,137,137,137
,137,137,137,137,137,138,138,138,131,136,136,136,136,136,136,136,136,136
,139,139,136,136,140,140,140,140,137,137,137,132,132,132,132,132,132,132
,128,128,128,128,128,128,132,134,134,134,134,136,145,133,129,135,129,135
,135,121,121,112,112,109,100,100,100,100,100,100,99,90,90,90,90,80
,80,80,75,75,75,75,75,75,75,75,75,75,75,75,75,75,75,75
,75,75,75,75,75,75,75,75,75,75,75,75,75,75,75,75,75,75
,75,75,76,76,76,76,76,76,30,30,30,30,30,30,30,30,30,30
,30,19,19,19,19,19,19,19,19,19,19,19,19,19,19,19,19,19
,19,19,19,19,19,19,19,19,19,19,19,19,19,19,19,19,19,19
,19,19,19,19,19,19,19,19,19,19,19,19,19,19,19,19,19,19
,19,19,19,19,19,19,19,19,19,19,19,19,19,19,19,19,19,19
,19,19,19,19,19,19,19,19,19,19,19,19,19,19,19,19,19,19
,19,19,19,19,19,19,19,19,19,19,19,19,19,19,19,19,19,19
,19,19,19,19,19,19,19,19,19,19,19,19,19,19,19,19,19,19
,19,19,19,19,19,19,19,19,19,19,19,19,19,19,19,19,19,19
,19,19,19,19,19,19,19,19,19,19];

% Num people who do not eat categories. contains = {none, meat, milk, gluten, egg, nut, seed, sugars}
numRefusals = [| 3,0,2,1,2,1,3,1 | 3,0,2,1,2,1,3,1 | 3,0,2,1,2,1,3,1 | 3,0,2,1,2,1,3,1 | 3,0,2,1,2,1,3,1 | 1,1,3,1,3,6,2,2 | 1,1,3,1,3,6,2,2 | 1,1,3,1,3,6,2,2 | 1,1,3,1,3,6,2,2 | 2,2,1,1,3,2,3,2 | 6,0,4,0,0,2,2,1 | 6,0,4,0,0,2,2,1 | 6,0,4,0,0,2,2,1 | 6,0,4,0,0,2,2,1 | 2,4,3,1,1,0,1,2 | 2,4,3,1,1,0,1,2 | 1,2,6,5,4,7,9,13 | 1,3,2,0,3,1,2,5 | 1,3,2,0,3,1,2,5 | 1,2,3,3,3,2,4,1 | 0,2,1,8,8,2,2,3 | 0,2,1,8,8,2,2,3 | 5,3,4,7,4,7,5,4 | 6,1,1,8,1,3,3,5 | 6,1,1,8,1,3,3,5 | 6,1,1,8,1,3,3,5 | 6,1,1,8,1,3,3,5 | 0,14,1,8,1,4,5,6 | 2,4,4,2,5,1,5,3 | 5,9,0,10,0,2,5,2 | 5,9,0,10,0,2,5,2 | 3,1,3,9,8,6,8,3 | 4,2,6,9,3,1,7,5 | 4,2,6,9,3,1,7,5 | 1,11,2,3,1,1,5,1 | 3,1,0,7,3,1,2,11 | 3,1,0,7,3,1,2,11 | 3,1,0,7,3,1,2,11 | 3,1,0,7,3,1,2,11 | 3,1,0,7,3,1,2,11 | 4,1,4,5,2,3,2,4 | 8,1,9,0,14,10,5,10 | 10,10,1,4,4,7,6,6 | 1,0,3,7,10,5,1,6 | 6,6,6,0,1,7,4,4 | 4,3,6,15,9,6,13,4 | 7,5,10,1,4,2,5,13 | 4,1,2,10,11,18,0,6 | 13,2,3,1,2,7,3,17 | 4,6,6,16,2,4,13,21 | 4,6,6,16,2,4,13,21 | 2,10,2,19,3,0,11,9 | 2,10,2,19,3,0,11,9 | 4,6,13,3,0,4,3,4 | 4,6,13,3,0,4,3,4 | 4,6,13,3,0,4,3,4 | 9,2,4,10,12,6,5,18 | 9,2,4,10,12,6,5,18 | 9,2,4,10,12,6,5,18 | 1,1,21,13,1,10,6,4 | 3,4,8,17,5,0,29,24 | 3,4,8,17,5,0,29,24 | 3,4,8,17,5,0,29,24 | 3,4,8,17,5,0,29,24 | 3,4,8,17,5,0,29,24 | 3,10,2,20,6,3,24,4 | 3,10,2,20,6,3,24,4 | 3,10,2,20,6,3,24,4 | 3,10,2,20,6,3,24,4 | 10,25,5,29,7,4,24,20 | 10,25,5,29,7,4,24,20 | 9,3,16,1,12,3,6,12 | 11,25,17,14,12,5,12,10 | 30,17,7,4,9,5,18,6 | 30,17,7,4,9,5,18,6 | 30,17,7,4,9,5,18,6 | 1,7,3,10,20,18,14,8 | 1,7,3,10,20,18,14,8 | 8,1,0,2,9,18,5,8 | 15,6,1,12,5,10,5,7 | 16,14,3,15,16,8,13,21 | 16,14,3,15,16,8,13,21 | 16,14,3,15,16,8,13,21 | 16,14,3,15,16,8,13,21 | 18,16,9,14,15,9,15,24 | 18,16,9,14,15,9,15,24 | 4,6,17,17,27,25,8,13 | 4,6,17,17,27,25,8,13 | 4,6,17,17,27,25,8,13 | 4,6,17,17,27,25,8,13 | 4,6,17,17,27,25,8,13 | 4,6,17,17,27,25,8,13 | 4,6,17,17,27,25,8,13 | 4,6,17,17,27,25,8,13 | 4,6,17,17,27,25,8,13 | 1,5,39,4,31,23,20,4 | 1,5,39,4,31,23,20,4 | 8,21,2,13,11,12,14,2 | 8,21,2,13,11,12,14,2 | 4,0,8,6,1,10,25,12 | 4,0,8,6,1,10,25,12 | 4,0,8,6,1,10,25,12 | 4,0,8,6,1,10,25,12 | 4,0,8,6,1,10,25,12 | 4,0,8,6,1,10,25,12 | 4,0,8,6,1,10,25,12 | 4,0,8,6,1,10,25,12 | 4,0,8,6,1,10,25,12 | 8,16,9,4,9,31,4,11 | 3,30,17,18,9,4,0,2 | 3,30,17,18,9,4,0,2 | 3,30,17,18,9,4,0,2 | 22,42,17,8,2,1,10,1 | 19,0,3,11,4,6,0,3 | 11,27,14,19,6,2,7,5 | 45,6,1,19,0,19,10,30 | 45,6,1,19,0,19,10,30 | 45,6,1,19,0,19,10,30 | 23,9,6,6,10,11,16,16 | 1,9,22,17,17,13,10,20 | 1,9,22,17,17,13,10,20 | 8,16,6,10,32,2,12,1 | 1,29,25,3,40,4,23,10 | 1,29,25,3,40,4,23,10 | 1,29,25,3,40,4,23,10 | 2,14,5,0,24,0,3,3 | 16,13,5,15,32,13,25,7 | 16,13,5,15,32,13,25,7 | 16,13,5,15,32,13,25,7 | 16,13,5,15,32,13,25,7 | 16,13,5,15,32,13,25,7 | 16,13,5,15,32,13,25,7 | 16,13,5,15,32,13,25,7 | 5,3,16,13,16,2,2,15 | 5,3,16,13,16,2,2,15 | 5,3,16,13,16,2,2,15 | 7,34,7,9,20,5,26,2 | 3,18,33,12,12,21,6,9 | 6,27,31,10,5,33,0,29 | 8,18,9,21,12,15,24,2 | 8,18,9,21,12,15,24,2 | 8,18,9,21,12,15,24,2 | 29,2,6,22,1,17,9,2 | 22,17,4,9,25,7,8,23 | 4,20,16,2,2,9,15,15 | 4,20,16,2,2,9,15,15 | 25,11,7,3,4,13,4,2 | 21,7,37,6,14,4,11,10 | 5,3,5,4,30,4,14,1 | 15,10,1,10,15,6,21,6 | 15,10,1,10,15,6,21,6 | 15,10,1,10,15,6,21,6 | 15,10,1,10,15,6,21,6 | 4,35,6,17,15,9,9,11 | 20,1,5,10,8,19,23,4 | 10,32,8,7,10,3,4,19 | 8,1,4,4,2,12,17,23 | 8,1,4,4,2,12,17,23 | 8,1,4,4,2,12,17,23 | 8,1,4,4,2,12,17,23 | 16,10,5,13,0,9,2,1 | 16,10,5,13,0,9,2,1 | 16,10,5,13,0,9,2,1 | 9,7,1,4,11,6,2,5 | 9,7,1,4,11,6,2,5 | 9,7,1,4,11,6,2,5 | 9,7,1,4,11,6,2,5 | 9,7,1,4,11,6,2,5 | 9,7,1,4,11,6,2,5 | 9,7,1,4,11,6,2,5 | 9,7,1,4,11,6,2,5 | 9,7,1,4,11,6,2,5 | 9,7,1,4,11,6,2,5 | 9,7,1,4,11,6,2,5 | 9,7,1,4,11,6,2,5 | 9,7,1,4,11,6,2,5 | 9,7,1,4,11,6,2,5 | 9,7,1,4,11,6,2,5 | 9,7,1,4,11,6,2,5 | 9,7,1,4,11,6,2,5 | 9,7,1,4,11,6,2,5 | 9,7,1,4,11,6,2,5 | 9,7,1,4,11,6,2,5 | 9,7,1,4,11,6,2,5 | 9,7,1,4,11,6,2,5 | 9,7,1,4,11,6,2,5 | 9,7,1,4,11,6,2,5 | 9,7,1,4,11,6,2,5 | 9,7,1,4,11,6,2,5 | 9,7,1,4,11,6,2,5 | 9,7,1,4,11,6,2,5 | 9,7,1,4,11,6,2,5 | 9,7,1,4,11,6,2,5 | 9,7,1,4,11,6,2,5 | 9,7,1,4,11,6,2,5 | 9,7,1,4,11,6,2,5 | 9,7,1,4,11,6,2,5 | 9,7,1,4,11,6,2,5 | 9,7,1,4,11,6,2,5 | 9,7,1,4,11,6,2,5 | 7,11,4,13,12,3,4,7 | 7,11,4,13,12,3,4,7 | 7,11,4,13,12,3,4,7 | 7,11,4,13,12,3,4,7 | 7,11,4,13,12,3,4,7 | 2,5,4,7,3,7,1,6 | 2,5,4,7,3,7,1,6 | 2,5,4,7,3,7,1,6 | 2,5,4,7,3,7,1,6 | 2,5,4,7,3,7,1,6 | 2,5,4,7,3,7,1,6 | 2,5,4,7,3,7,1,6 | 2,5,4,7,3,7,1,6 | 2,5,4,7,3,7,1,6 | 2,5,4,7,3,7,1,6 | 2,5,4,7,3,7,1,6 | 0,4,2,2,3,2,0,2 | 0,4,2,2,3,2,0,2 | 0,4,2,2,3,2,0,2 | 0,4,2,2,3,2,0,2 | 0,4,2,2,3,2,0,2 | 0,4,2,2,3,2,0,2 | 0,4,2,2,3,2,0,2 | 0,4,2,2,3,2,0,2 | 0,4,2,2,3,2,0,2 | 0,4,2,2,3,2,0,2 | 0,4,2,2,3,2,0,2 | 0,4,2,2,3,2,0,2 | 0,4,2,2,3,2,0,2 | 0,4,2,2,3,2,0,2 | 0,4,2,2,3,2,0,2 | 0,4,2,2,3,2,0,2 | 0,4,2,2,3,2,0,2 | 0,4,2,2,3,2,0,2 | 0,4,2,2,3,2,0,2 | 0,4,2,2,3,2,0,2 | 0,4,2,2,3,2,0,2 | 0,4,2,2,3,2,0,2 | 0,4,2,2,3,2,0,2 | 0,4,2,2,3,2,0,2 | 0,4,2,2,3,2,0,2 | 0,4,2,2,3,2,0,2 | 0,4,2,2,3,2,0,2 | 0,4,2,2,3,2,0,2 | 0,4,2,2,3,2,0,2 | 0,4,2,2,3,2,0,2 | 0,4,2,2,3,2,0,2 | 0,4,2,2,3,2,0,2 | 0,4,2,2,3,2,0,2 | 0,4,2,2,3,2,0,2 | 0,4,2,2,3,2,0,2 | 0,4,2,2,3,2,0,2 | 0,4,2,2,3,2,0,2 | 0,4,2,2,3,2,0,2 | 0,4,2,2,3,2,0,2 | 0,4,2,2,3,2,0,2 | 0,4,2,2,3,2,0,2 | 0,4,2,2,3,2,0,2 | 0,4,2,2,3,2,0,2 | 0,4,2,2,3,2,0,2 | 0,4,2,2,3,2,0,2 | 0,4,2,2,3,2,0,2 | 0,4,2,2,3,2,0,2 | 0,4,2,2,3,2,0,2 | 0,4,2,2,3,2,0,2 | 0,4,2,2,3,2,0,2 | 0,4,2,2,3,2,0,2 | 0,4,2,2,3,2,0,2 | 0,4,2,2,3,2,0,2 | 0,4,2,2,3,2,0,2 | 0,4,2,2,3,2,0,2 | 0,4,2,2,3,2,0,2 | 0,4,2,2,3,2,0,2 | 0,4,2,2,3,2,0,2 | 0,4,2,2,3,2,0,2 | 0,4,2,2,3,2,0,2 | 0,4,2,2,3,2,0,2 | 0,4,2,2,3,2,0,2 | 0,4,2,2,3,2,0,2 | 0,4,2,2,3,2,0,2 | 0,4,2,2,3,2,0,2 | 0,4,2,2,3,2,0,2 | 0,4,2,2,3,2,0,2 | 0,4,2,2,3,2,0,2 | 0,4,2,2,3,2,0,2 | 0,4,2,2,3,2,0,2 | 0,4,2,2,3,2,0,2 | 0,4,2,2,3,2,0,2 | 0,4,2,2,3,2,0,2 | 0,4,2,2,3,2,0,2 | 0,4,2,2,3,2,0,2 | 0,4,2,2,3,2,0,2 | 0,4,2,2,3,2,0,2 | 0,4,2,2,3,2,0,2 | 0,4,2,2,3,2,0,2 | 0,4,2,2,3,2,0,2 | 0,4,2,2,3,2,0,2 | 0,4,2,2,3,2,0,2 | 0,4,2,2,3,2,0,2 | 0,4,2,2,3,2,0,2 | 0,4,2,2,3,2,0,2 | 0,4,2,2,3,2,0,2 | 0,4,2,2,3,2,0,2 | 0,4,2,2,3,2,0,2 | 0,4,2,2,3,2,0,2 | 0,4,2,2,3,2,0,2 | 0,4,2,2,3,2,0,2 | 0,4,2,2,3,2,0,2 | 0,4,2,2,3,2,0,2 | 0,4,2,2,3,2,0,2 | 0,4,2,2,3,2,0,2 | 0,4,2,2,3,2,0,2 | 0,4,2,2,3,2,0,2 | 0,4,2,2,3,2,0,2 | 0,4,2,2,3,2,0,2 | 0,4,2,2,3,2,0,2 | 0,4,2,2,3,2,0,2 | 0,4,2,2,3,2,0,2 | 0,4,2,2,3,2,0,2 | 0,4,2,2,3,2,0,2 | 0,4,2,2,3,2,0,2 | 0,4,2,2,3,2,0,2 | 0,4,2,2,3,2,0,2 | 0,4,2,2,3,2,0,2 | 0,4,2,2,3,2,0,2 | 0,4,2,2,3,2,0,2 | 0,4,2,2,3,2,0,2 | 0,4,2,2,3,2,0,2 | 0,4,2,2,3,2,0,2 | 0,4,2,2,3,2,0,2 | 0,4,2,2,3,2,0,2 | 0,4,2,2,3,2,0,2 | 0,4,2,2,3,2,0,2 | 0,4,2,2,3,2,0,2 | 0,4,2,2,3,2,0,2 | 0,4,2,2,3,2,0,2 | 0,4,2,2,3,2,0,2 | 0,4,2,2,3,2,0,2 | 0,4,2,2,3,2,0,2 | 0,4,2,2,3,2,0,2 | 0,4,2,2,3,2,0,2 | 0,4,2,2,3,2,0,2 | 0,4,2,2,3,2,0,2 | 0,4,2,2,3,2,0,2 | 0,4,2,2,3,2,0,2 | 0,4,2,2,3,2,0,2 | 0,4,2,2,3,2,0,2 | 0,4,2,2,3,2,0,2 | 0,4,2,2,3,2,0,2 | 0,4,2,2,3,2,0,2 | 0,4,2,2,3,2,0,2 | 0,4,2,2,3,2,0,2 | 0,4,2,2,3,2,0,2 | 0,4,2,2,3,2,0,2 | 0,4,2,2,3,2,0,2 | 0,4,2,2,3,2,0,2 | 0,4,2,2,3,2,0,2 | 0,4,2,2,3,2,0,2 | 0,4,2,2,3,2,0,2 | 0,4,2,2,3,2,0,2 | 0,4,2,2,3,2,0,2 | 0,4,2,2,3,2,0,2 | 0,4,2,2,3,2,0,2 | 0,4,2,2,3,2,0,2 | 0,4,2,2,3,2,0,2 | 0,4,2,2,3,2,0,2 | 0,4,2,2,3,2,0,2 | 0,4,2,2,3,2,0,2 | 0,4,2,2,3,2,0,2 | 0,4,2,2,3,2,0,2 |];

